CMD:
./solvers/bin/cadical --plain --no-reduce -t 1600 ./data/cnfs//dspfilters_fastfir_second-p16/dspfilters_fastfir_second-p16.94.cnf

c --- [ banner ] -------------------------------------------------------------
c 
c CaDiCaL SAT Solver
c Copyright (c) 2016-2024
c A. Biere, M. Fleury, N. Froleyks, K. Fazekas, F. Pollitt, T. Faller
c JKU Linz, University of Freiburg, TU Wien
c 
c Version 2.1.3 5296d3d2a9bf48c154ab2acb5e44625776d821bf
c g++ (Gentoo 12.3.1_p20230526 p2) 12.3.1 20230526 -Wall -Wextra -O3 -DNDEBUG
c Sat Aug 9 07:26:21 PDT 2025 Linux cedar2.int.cedar.computecanada.ca 5.14.0-362.24.2.el9_3.x86_64 x86_64
c 
c --- [ limit ] --------------------------------------------------------------
c 
c setting time limit to 1600 seconds real time (due to '-t 1600')
c 
c --- [ parsing input ] ------------------------------------------------------
c 
c reading DIMACS file from './data/cnfs//dspfilters_fastfir_second-p16/dspfilters_fastfir_second-p16.94.cnf'
c opening file to read './data/cnfs//dspfilters_fastfir_second-p16/dspfilters_fastfir_second-p16.94.cnf'
c found 'p cnf 2782921 8138415' header
c parsed 8138415 clauses in 1.43 seconds process time
c 
c --- [ options ] ------------------------------------------------------------
c 
c   --compact=false                (different from default 'true')
c   --decompose=false              (different from default 'true')
c   --deduplicate=false            (different from default 'true')
c   --elim=false                   (different from default 'true')
c   --probe=false                  (different from default 'true')
c   --reduce=false                 (different from default 'true')
c   --subsume=false                (different from default 'true')
c   --ternary=false                (different from default 'true')
c   --transred=false               (different from default 'true')
c   --vivify=false                 (different from default 'true')
c 
c --- [ solving ] ------------------------------------------------------------
c 
c time measured in process time since initialization
c 
c  seconds    reductions  redundant   irredundant
c          MB     restarts       trail         variables
c            level   conflicts       glue            remaining
c 
c *  1.43 1244  0 0   0    0    0  0% 0 7984190 2622402 94%
c {  2.51 1286  0 0   0    0    0  0% 0 7984190 2622402 94%
c i  2.54 1286 246 0   0   27   12  7% 3 7984190 2622397 94%
c i  2.54 1286 217 0   0   33   15  7% 2 7984190 2622344 94%
c i  2.54 1286 204 0   0   37   17  7% 2 7984190 2622291 94%
c i  2.68 1286 35 0  35  298  157  8% 5 7984190 2605163 94%
c i  2.71 1286 60 0  35  303  161  8% 5 7984190 2605162 94%
c }  3.62 1287 47 0  82 1001  717  9% 5 7984190 2605162 94%
c [  3.62 1287  0 0  82 1001  717  0% 0 7984190 2605162 94%
c O  4.29 1287 47738 0  82 1002  718 97% 1 7984190 2605162 94%
c i  4.36 1287 43718 0  82 1026  735 90% 15 7984190 2603841 94%
c i  4.45 1287 43044 0  82 1035  742 90% 17 7984190 2602968 94%
c i  6.76 1288 40218 0  82 1779 1437 92% 8 7984190 2602792 94%
c i  7.51 1288 39905 0  82 1910 1546 92% 9 7984190 2602782 94%
c i  7.67 1288 39838 0  82 1945 1570 92% 9 7984190 2602763 94%
c i  8.79 1288 33079 0  83 2259 1840 79% 8 7984190 2602547 94%
c i  8.79 1288 33052 0  83 2260 1840 79% 8 7984190 2602542 94%
c i  8.82 1288 32440 0  83 2283 1838 77% 8 7984190 2563673 92%
c i  9.11 1288 26538 0  83 2564 2031 65% 7 7984190 2558351 92%
c i  9.25 1288 23915 0  83 2732 2114 60% 7 7984190 2504875 90%
c 
c  seconds       reductions  redundant   irredundant
c          MB        restarts       trail         variables
c              level    conflicts       glue            remaining
c 
c i  9.25 1288 23773 0  83 2742 2122 59% 7 7984190 2502609 90%
c ]  9.25 1288 23759 0  83 2744 2122 59% 7 7984190 2500523 90%
c 0  9.25 1288 23759 0  83 2744 2122 59% 7 7984190 2500523 90%
c 
c --- [ result ] -------------------------------------------------------------
c 
s UNSATISFIABLE
c 
c --- [ run-time profiling ] -------------------------------------------------
c 
c process time taken by individual solving procedures
c (percentage relative to process time for solving)
c 
c         7.82  100.00% search
c         5.63   72.05% stable
c         1.43   18.29% parse
c         1.10   14.10% unstable
c         1.08   13.85% lucky
c         0.00    0.00% simplify
c   =================================
c         7.82   84.53% solve
c 
c last line shows process time for solving
c (percentage relative to total process time)
c 
c --- [ statistics ] ---------------------------------------------------------
c 
c chronological:              1092        39.80 %  of conflicts
c conflicts:                  2744       350.96    per second
c decisions:                 63309      8097.20    per second
c fixed:                    280592        10.08 %  of all variables
c learned:                    2636        96.06 %  per conflict
c learned_lits:              88696       100.00 %  learned literals
c minimized:                     0         0.00 %  learned literals
c shrunken:                  27879        31.43 %  learned literals
c minishrunken:              15078        17.00 %  learned literals
c otfs:                         38         1.38 %  of conflict
c propagations:           54663774         6.99 M  per second
c rephased:                      1      2744.00    interval
c restarts:                     83        33.06    interval
c stabilizing:                   1        63.52 %  of conflicts
c subsumed:                    498         0.01 %  of all clauses
c strengthened:                 37         0.00 %  of all clauses
c 
c seconds are measured in process time for solving
c 
c --- [ resources ] ----------------------------------------------------------
c 
c total process time since initialization:         9.25    seconds
c total real time since initialization:            9.31    seconds
c maximum resident set size of process:         1286.21    MB
c 
c --- [ shutting down ] ------------------------------------------------------
c 
c exit 20
